maximize
0.25V(0,27) + 0.25V(0,10) + 0.25V(0,15) + 0.25V(0,18)
subject to
V(7,27) - 1F(7,27) - 0F(7,10) - 0F(7,15) - 0F(7,18) - V(3,27) <= 0
V(7,10) - 0F(7,27) - 1F(7,10) - 0F(7,15) - 0F(7,18) - V(3,10) <= 0
V(7,15) - 0F(7,27) - 0F(7,10) - 1F(7,15) - 0F(7,18) - V(3,15) <= 0
V(7,18) - 0F(7,27) - 0F(7,10) - 0F(7,15) - 1F(7,18) - V(3,18) <= 0
V(2102,27) - 1F(2102,27) - 0F(2102,10) - 0F(2102,15) - 0F(2102,18) - V(2103,27) <= 0
V(2102,10) - 0F(2102,27) - 1F(2102,10) - 0F(2102,15) - 0F(2102,18) - V(2103,10) <= 0
V(2102,15) - 0F(2102,27) - 0F(2102,10) - 1F(2102,15) - 0F(2102,18) - V(2103,15) <= 0
V(2102,18) - 0F(2102,27) - 0F(2102,10) - 0F(2102,15) - 1F(2102,18) - V(2103,18) <= 0
V(1502,27) - 1F(1502,27) - 0F(1502,10) - 0F(1502,15) - 0F(1502,18) - V(1503,27) <= 0
V(1502,10) - 0F(1502,27) - 1F(1502,10) - 0F(1502,15) - 0F(1502,18) - V(1503,10) <= 0
V(1502,15) - 0F(1502,27) - 0F(1502,10) - 1F(1502,15) - 0F(1502,18) - V(1503,15) <= 0
V(1502,18) - 0F(1502,27) - 0F(1502,10) - 0F(1502,15) - 1F(1502,18) - V(1503,18) <= 0
V(3,27) - 1F(3,27) - 0F(3,10) - 0F(3,15) - 0F(3,18) - V(7,27) <= 0
V(3,10) - 0F(3,27) - 1F(3,10) - 0F(3,15) - 0F(3,18) - V(7,10) <= 0
V(3,15) - 0F(3,27) - 0F(3,10) - 1F(3,15) - 0F(3,18) - V(7,15) <= 0
V(3,18) - 0F(3,27) - 0F(3,10) - 0F(3,15) - 1F(3,18) - V(7,18) <= 0
V(1503,27) - 1F(1503,27) - 0F(1503,10) - 0F(1503,15) - 0F(1503,18) - V(10,27) <= 0
V(1503,10) - 0F(1503,27) - 1F(1503,10) - 0F(1503,15) - 0F(1503,18) - V(10,10) <= 0
V(1503,15) - 0F(1503,27) - 0F(1503,10) - 1F(1503,15) - 0F(1503,18) - V(10,15) <= 0
V(1503,18) - 0F(1503,27) - 0F(1503,10) - 0F(1503,15) - 1F(1503,18) - V(10,18) <= 0
V(1201,27) - 1F(1201,27) - 0F(1201,10) - 0F(1201,15) - 0F(1201,18) - V(1202,27) <= 0
V(1201,10) - 0F(1201,27) - 1F(1201,10) - 0F(1201,15) - 0F(1201,18) - V(1202,10) <= 0
V(1201,15) - 0F(1201,27) - 0F(1201,10) - 1F(1201,15) - 0F(1201,18) - V(1202,15) <= 0
V(1201,18) - 0F(1201,27) - 0F(1201,10) - 0F(1201,15) - 1F(1201,18) - V(1202,18) <= 0
V(10,27) - 1F(10,27) - 0F(10,10) - 0F(10,15) - 0F(10,18) - V(8,27) <= 0
V(10,10) = 0
V(10,15) - 0F(10,27) - 0F(10,10) - 1F(10,15) - 0F(10,18) - V(8,15) <= 0
V(10,18) - 0F(10,27) - 0F(10,10) - 0F(10,15) - 1F(10,18) - V(8,18) <= 0
V(1402,27) - 1F(1402,27) - 0F(1402,10) - 0F(1402,15) - 0F(1402,18) - V(1403,27) <= 0
V(1402,10) - 0F(1402,27) - 1F(1402,10) - 0F(1402,15) - 0F(1402,18) - V(1403,10) <= 0
V(1402,15) - 0F(1402,27) - 0F(1402,10) - 1F(1402,15) - 0F(1402,18) - V(1403,15) <= 0
V(1402,18) - 0F(1402,27) - 0F(1402,10) - 0F(1402,15) - 1F(1402,18) - V(1403,18) <= 0
V(2201,27) - 1F(2201,27) - 0F(2201,10) - 0F(2201,15) - 0F(2201,18) - V(19,27) <= 0
V(2201,10) - 0F(2201,27) - 1F(2201,10) - 0F(2201,15) - 0F(2201,18) - V(19,10) <= 0
V(2201,15) - 0F(2201,27) - 0F(2201,10) - 1F(2201,15) - 0F(2201,18) - V(19,15) <= 0
V(2201,18) - 0F(2201,27) - 0F(2201,10) - 0F(2201,15) - 1F(2201,18) - V(19,18) <= 0
V(1102,27) - 1F(1102,27) - 0F(1102,10) - 0F(1102,15) - 0F(1102,18) - V(19,27) <= 0
V(1102,10) - 0F(1102,27) - 1F(1102,10) - 0F(1102,15) - 0F(1102,18) - V(19,10) <= 0
V(1102,15) - 0F(1102,27) - 0F(1102,10) - 1F(1102,15) - 0F(1102,18) - V(19,15) <= 0
V(1102,18) - 0F(1102,27) - 0F(1102,10) - 0F(1102,15) - 1F(1102,18) - V(19,18) <= 0
V(18,27) - 1F(18,27) - 0F(18,10) - 0F(18,15) - 0F(18,18) - V(9,27) <= 0
V(18,10) - 0F(18,27) - 1F(18,10) - 0F(18,15) - 0F(18,18) - V(9,10) <= 0
V(18,15) - 0F(18,27) - 0F(18,10) - 1F(18,15) - 0F(18,18) - V(9,15) <= 0
V(18,18) = 0
V(27,27) = 0
V(27,10) - 0F(27,27) - 1F(27,10) - 0F(27,15) - 0F(27,18) - V(28,10) <= 0
V(27,15) - 0F(27,27) - 0F(27,10) - 1F(27,15) - 0F(27,18) - V(28,15) <= 0
V(27,18) - 0F(27,27) - 0F(27,10) - 0F(27,15) - 1F(27,18) - V(28,18) <= 0
V(9,27) - 1F(9,27) - 0F(9,10) - 0F(9,15) - 0F(9,18) - V(8,27) <= 0
V(9,10) - 0F(9,27) - 1F(9,10) - 0F(9,15) - 0F(9,18) - V(8,10) <= 0
V(9,15) - 0F(9,27) - 0F(9,10) - 1F(9,15) - 0F(9,18) - V(8,15) <= 0
V(9,18) - 0F(9,27) - 0F(9,10) - 0F(9,15) - 1F(9,18) - V(8,18) <= 0
V(23,27) - 1F(23,27) - 0F(23,10) - 0F(23,15) - 0F(23,18) - V(25,27) <= 0
V(23,10) - 0F(23,27) - 1F(23,10) - 0F(23,15) - 0F(23,18) - V(25,10) <= 0
V(23,15) - 0F(23,27) - 0F(23,10) - 1F(23,15) - 0F(23,18) - V(25,15) <= 0
V(23,18) - 0F(23,27) - 0F(23,10) - 0F(23,15) - 1F(23,18) - V(25,18) <= 0
V(1202,27) - 1F(1202,27) - 0F(1202,10) - 0F(1202,15) - 0F(1202,18) - V(23,27) <= 0
V(1202,10) - 0F(1202,27) - 1F(1202,10) - 0F(1202,15) - 0F(1202,18) - V(23,10) <= 0
V(1202,15) - 0F(1202,27) - 0F(1202,10) - 1F(1202,15) - 0F(1202,18) - V(23,15) <= 0
V(1202,18) - 0F(1202,27) - 0F(1202,10) - 0F(1202,15) - 1F(1202,18) - V(23,18) <= 0
V(2,27) - 1F(2,27) - 0F(2,10) - 0F(2,15) - 0F(2,18) - V(6,27) <= 0
V(2,10) - 0F(2,27) - 1F(2,10) - 0F(2,15) - 0F(2,18) - V(6,10) <= 0
V(2,15) - 0F(2,27) - 0F(2,10) - 1F(2,15) - 0F(2,18) - V(6,15) <= 0
V(2,18) - 0F(2,27) - 0F(2,10) - 0F(2,15) - 1F(2,18) - V(6,18) <= 0
V(4,27) - 1F(4,27) - 0F(4,10) - 0F(4,15) - 0F(4,18) - V(5,27) <= 0
V(4,10) - 0F(4,27) - 1F(4,10) - 0F(4,15) - 0F(4,18) - V(5,10) <= 0
V(4,15) - 0F(4,27) - 0F(4,10) - 1F(4,15) - 0F(4,18) - V(5,15) <= 0
V(4,18) - 0F(4,27) - 0F(4,10) - 0F(4,15) - 1F(4,18) - V(5,18) <= 0
V(5,27) - 1F(5,27) - 0F(5,10) - 0F(5,15) - 0F(5,18) - V(1401,27) <= 0
V(5,10) - 0F(5,27) - 1F(5,10) - 0F(5,15) - 0F(5,18) - V(1401,10) <= 0
V(5,15) - 0F(5,27) - 0F(5,10) - 1F(5,15) - 0F(5,18) - V(1401,15) <= 0
V(5,18) - 0F(5,27) - 0F(5,10) - 0F(5,15) - 1F(5,18) - V(1401,18) <= 0
V(1102,27) - 1F(1102,27) - 0F(1102,10) - 0F(1102,15) - 0F(1102,18) - V(13,27) <= 0
V(1102,10) - 0F(1102,27) - 1F(1102,10) - 0F(1102,15) - 0F(1102,18) - V(13,10) <= 0
V(1102,15) - 0F(1102,27) - 0F(1102,10) - 1F(1102,15) - 0F(1102,18) - V(13,15) <= 0
V(1102,18) - 0F(1102,27) - 0F(1102,10) - 0F(1102,15) - 1F(1102,18) - V(13,18) <= 0
V(0,27) - 1F(0,27) - 0F(0,10) - 0F(0,15) - 0F(0,18) - V(1,27) <= 0
V(0,10) - 0F(0,27) - 1F(0,10) - 0F(0,15) - 0F(0,18) - V(1,10) <= 0
V(0,15) - 0F(0,27) - 0F(0,10) - 1F(0,15) - 0F(0,18) - V(1,15) <= 0
V(0,18) - 0F(0,27) - 0F(0,10) - 0F(0,15) - 1F(0,18) - V(1,18) <= 0
V(6,27) - 1F(6,27) - 0F(6,10) - 0F(6,15) - 0F(6,18) - V(13,27) <= 0
V(6,10) - 0F(6,27) - 1F(6,10) - 0F(6,15) - 0F(6,18) - V(13,10) <= 0
V(6,15) - 0F(6,27) - 0F(6,10) - 1F(6,15) - 0F(6,18) - V(13,15) <= 0
V(6,18) - 0F(6,27) - 0F(6,10) - 0F(6,15) - 1F(6,18) - V(13,18) <= 0
V(1502,27) - 1F(1502,27) - 0F(1502,10) - 0F(1502,15) - 0F(1502,18) - V(19,27) <= 0
V(1502,10) - 0F(1502,27) - 1F(1502,10) - 0F(1502,15) - 0F(1502,18) - V(19,10) <= 0
V(1502,15) - 0F(1502,27) - 0F(1502,10) - 1F(1502,15) - 0F(1502,18) - V(19,15) <= 0
V(1502,18) - 0F(1502,27) - 0F(1502,10) - 0F(1502,15) - 1F(1502,18) - V(19,18) <= 0
V(9,27) - 1F(9,27) - 0F(9,10) - 0F(9,15) - 0F(9,18) - V(19,27) <= 0
V(9,10) - 0F(9,27) - 1F(9,10) - 0F(9,15) - 0F(9,18) - V(19,10) <= 0
V(9,15) - 0F(9,27) - 0F(9,10) - 1F(9,15) - 0F(9,18) - V(19,15) <= 0
V(9,18) - 0F(9,27) - 0F(9,10) - 0F(9,15) - 1F(9,18) - V(19,18) <= 0
V(1302,27) - 1F(1302,27) - 0F(1302,10) - 0F(1302,15) - 0F(1302,18) - V(1303,27) <= 0
V(1302,10) - 0F(1302,27) - 1F(1302,10) - 0F(1302,15) - 0F(1302,18) - V(1303,10) <= 0
V(1302,15) - 0F(1302,27) - 0F(1302,10) - 1F(1302,15) - 0F(1302,18) - V(1303,15) <= 0
V(1302,18) - 0F(1302,27) - 0F(1302,10) - 0F(1302,15) - 1F(1302,18) - V(1303,18) <= 0
V(23,27) - 1F(23,27) - 0F(23,10) - 0F(23,15) - 0F(23,18) - V(1501,27) <= 0
V(23,10) - 0F(23,27) - 1F(23,10) - 0F(23,15) - 0F(23,18) - V(1501,10) <= 0
V(23,15) - 0F(23,27) - 0F(23,10) - 1F(23,15) - 0F(23,18) - V(1501,15) <= 0
V(23,18) - 0F(23,27) - 0F(23,10) - 0F(23,15) - 1F(23,18) - V(1501,18) <= 0
V(8,27) - 1F(8,27) - 0F(8,10) - 0F(8,15) - 0F(8,18) - V(9,27) <= 0
V(8,10) - 0F(8,27) - 1F(8,10) - 0F(8,15) - 0F(8,18) - V(9,10) <= 0
V(8,15) - 0F(8,27) - 0F(8,10) - 1F(8,15) - 0F(8,18) - V(9,15) <= 0
V(8,18) - 0F(8,27) - 0F(8,10) - 0F(8,15) - 1F(8,18) - V(9,18) <= 0
V(3,27) - 1F(3,27) - 0F(3,10) - 0F(3,15) - 0F(3,18) - V(28,27) <= 0
V(3,10) - 0F(3,27) - 1F(3,10) - 0F(3,15) - 0F(3,18) - V(28,10) <= 0
V(3,15) - 0F(3,27) - 0F(3,10) - 1F(3,15) - 0F(3,18) - V(28,15) <= 0
V(3,18) - 0F(3,27) - 0F(3,10) - 0F(3,15) - 1F(3,18) - V(28,18) <= 0
V(2103,27) - 1F(2103,27) - 0F(2103,10) - 0F(2103,15) - 0F(2103,18) - V(27,27) <= 0
V(2103,10) - 0F(2103,27) - 1F(2103,10) - 0F(2103,15) - 0F(2103,18) - V(27,10) <= 0
V(2103,15) - 0F(2103,27) - 0F(2103,10) - 1F(2103,15) - 0F(2103,18) - V(27,15) <= 0
V(2103,18) - 0F(2103,27) - 0F(2103,10) - 0F(2103,15) - 1F(2103,18) - V(27,18) <= 0
V(13,27) - 1F(13,27) - 0F(13,10) - 0F(13,15) - 0F(13,18) - V(1301,27) <= 0
V(13,10) - 0F(13,27) - 1F(13,10) - 0F(13,15) - 0F(13,18) - V(1301,10) <= 0
V(13,15) - 0F(13,27) - 0F(13,10) - 1F(13,15) - 0F(13,18) - V(1301,15) <= 0
V(13,18) - 0F(13,27) - 0F(13,10) - 0F(13,15) - 1F(13,18) - V(1301,18) <= 0
V(15,27) - 1F(15,27) - 0F(15,10) - 0F(15,15) - 0F(15,18) - V(23,27) <= 0
V(15,10) - 0F(15,27) - 1F(15,10) - 0F(15,15) - 0F(15,18) - V(23,10) <= 0
V(15,15) = 0
V(15,18) - 0F(15,27) - 0F(15,10) - 0F(15,15) - 1F(15,18) - V(23,18) <= 0
V(28,27) - 1F(28,27) - 0F(28,10) - 0F(28,15) - 0F(28,18) - V(27,27) <= 0
V(28,10) - 0F(28,27) - 1F(28,10) - 0F(28,15) - 0F(28,18) - V(27,10) <= 0
V(28,15) - 0F(28,27) - 0F(28,10) - 1F(28,15) - 0F(28,18) - V(27,15) <= 0
V(28,18) - 0F(28,27) - 0F(28,10) - 0F(28,15) - 1F(28,18) - V(27,18) <= 0
V(28,27) - 1F(28,27) - 0F(28,10) - 0F(28,15) - 0F(28,18) - V(25,27) <= 0
V(28,10) - 0F(28,27) - 1F(28,10) - 0F(28,15) - 0F(28,18) - V(25,10) <= 0
V(28,15) - 0F(28,27) - 0F(28,10) - 1F(28,15) - 0F(28,18) - V(25,15) <= 0
V(28,18) - 0F(28,27) - 0F(28,10) - 0F(28,15) - 1F(28,18) - V(25,18) <= 0
V(4,27) - 1F(4,27) - 0F(4,10) - 0F(4,15) - 0F(4,18) - V(1,27) <= 0
V(4,10) - 0F(4,27) - 1F(4,10) - 0F(4,15) - 0F(4,18) - V(1,10) <= 0
V(4,15) - 0F(4,27) - 0F(4,10) - 1F(4,15) - 0F(4,18) - V(1,15) <= 0
V(4,18) - 0F(4,27) - 0F(4,10) - 0F(4,15) - 1F(4,18) - V(1,18) <= 0
V(1401,27) - 1F(1401,27) - 0F(1401,10) - 0F(1401,15) - 0F(1401,18) - V(10,27) <= 0
V(1401,10) - 0F(1401,27) - 1F(1401,10) - 0F(1401,15) - 0F(1401,18) - V(10,10) <= 0
V(1401,15) - 0F(1401,27) - 0F(1401,10) - 1F(1401,15) - 0F(1401,18) - V(10,15) <= 0
V(1401,18) - 0F(1401,27) - 0F(1401,10) - 0F(1401,15) - 1F(1401,18) - V(10,18) <= 0
V(5,27) - 1F(5,27) - 0F(5,10) - 0F(5,15) - 0F(5,18) - V(4,27) <= 0
V(5,10) - 0F(5,27) - 1F(5,10) - 0F(5,15) - 0F(5,18) - V(4,10) <= 0
V(5,15) - 0F(5,27) - 0F(5,10) - 1F(5,15) - 0F(5,18) - V(4,15) <= 0
V(5,18) - 0F(5,27) - 0F(5,10) - 0F(5,15) - 1F(5,18) - V(4,18) <= 0
V(1403,27) - 1F(1403,27) - 0F(1403,10) - 0F(1403,15) - 0F(1403,18) - V(23,27) <= 0
V(1403,10) - 0F(1403,27) - 1F(1403,10) - 0F(1403,15) - 0F(1403,18) - V(23,10) <= 0
V(1403,15) - 0F(1403,27) - 0F(1403,10) - 1F(1403,15) - 0F(1403,18) - V(23,15) <= 0
V(1403,18) - 0F(1403,27) - 0F(1403,10) - 0F(1403,15) - 1F(1403,18) - V(23,18) <= 0
V(13,27) - 1F(13,27) - 0F(13,10) - 0F(13,15) - 0F(13,18) - V(6,27) <= 0
V(13,10) - 0F(13,27) - 1F(13,10) - 0F(13,15) - 0F(13,18) - V(6,10) <= 0
V(13,15) - 0F(13,27) - 0F(13,10) - 1F(13,15) - 0F(13,18) - V(6,15) <= 0
V(13,18) - 0F(13,27) - 0F(13,10) - 0F(13,15) - 1F(13,18) - V(6,18) <= 0
V(15,27) - 1F(15,27) - 0F(15,10) - 0F(15,15) - 0F(15,18) - V(7,27) <= 0
V(15,10) - 0F(15,27) - 1F(15,10) - 0F(15,15) - 0F(15,18) - V(7,10) <= 0
V(15,15) = 0
V(15,18) - 0F(15,27) - 0F(15,10) - 0F(15,15) - 1F(15,18) - V(7,18) <= 0
V(1,27) - 1F(1,27) - 0F(1,10) - 0F(1,15) - 0F(1,18) - V(0,27) <= 0
V(1,10) - 0F(1,27) - 1F(1,10) - 0F(1,15) - 0F(1,18) - V(0,10) <= 0
V(1,15) - 0F(1,27) - 0F(1,10) - 1F(1,15) - 0F(1,18) - V(0,15) <= 0
V(1,18) - 0F(1,27) - 0F(1,10) - 0F(1,15) - 1F(1,18) - V(0,18) <= 0
V(19,27) - 1F(19,27) - 0F(19,10) - 0F(19,15) - 0F(19,18) - V(2101,27) <= 0
V(19,10) - 0F(19,27) - 1F(19,10) - 0F(19,15) - 0F(19,18) - V(2101,10) <= 0
V(19,15) - 0F(19,27) - 0F(19,10) - 1F(19,15) - 0F(19,18) - V(2101,15) <= 0
V(19,18) - 0F(19,27) - 0F(19,10) - 0F(19,15) - 1F(19,18) - V(2101,18) <= 0
V(1103,27) - 1F(1103,27) - 0F(1103,10) - 0F(1103,15) - 0F(1103,18) - V(23,27) <= 0
V(1103,10) - 0F(1103,27) - 1F(1103,10) - 0F(1103,15) - 0F(1103,18) - V(23,10) <= 0
V(1103,15) - 0F(1103,27) - 0F(1103,10) - 1F(1103,15) - 0F(1103,18) - V(23,15) <= 0
V(1103,18) - 0F(1103,27) - 0F(1103,10) - 0F(1103,15) - 1F(1103,18) - V(23,18) <= 0
V(1101,27) - 1F(1101,27) - 0F(1101,10) - 0F(1101,15) - 0F(1101,18) - V(1102,27) <= 0
V(1101,10) - 0F(1101,27) - 1F(1101,10) - 0F(1101,15) - 0F(1101,18) - V(1102,10) <= 0
V(1101,15) - 0F(1101,27) - 0F(1101,10) - 1F(1101,15) - 0F(1101,18) - V(1102,15) <= 0
V(1101,18) - 0F(1101,27) - 0F(1101,10) - 0F(1101,15) - 1F(1101,18) - V(1102,18) <= 0
V(2303,27) - 1F(2303,27) - 0F(2303,10) - 0F(2303,15) - 0F(2303,18) - V(19,27) <= 0
V(2303,10) - 0F(2303,27) - 1F(2303,10) - 0F(2303,15) - 0F(2303,18) - V(19,10) <= 0
V(2303,15) - 0F(2303,27) - 0F(2303,10) - 1F(2303,15) - 0F(2303,18) - V(19,15) <= 0
V(2303,18) - 0F(2303,27) - 0F(2303,10) - 0F(2303,15) - 1F(2303,18) - V(19,18) <= 0
V(19,27) - 1F(19,27) - 0F(19,10) - 0F(19,15) - 0F(19,18) - V(1201,27) <= 0
V(19,10) - 0F(19,27) - 1F(19,10) - 0F(19,15) - 0F(19,18) - V(1201,10) <= 0
V(19,15) - 0F(19,27) - 0F(19,10) - 1F(19,15) - 0F(19,18) - V(1201,15) <= 0
V(19,18) - 0F(19,27) - 0F(19,10) - 0F(19,15) - 1F(19,18) - V(1201,18) <= 0
V(1303,27) - 1F(1303,27) - 0F(1303,10) - 0F(1303,15) - 0F(1303,18) - V(23,27) <= 0
V(1303,10) - 0F(1303,27) - 1F(1303,10) - 0F(1303,15) - 0F(1303,18) - V(23,10) <= 0
V(1303,15) - 0F(1303,27) - 0F(1303,10) - 1F(1303,15) - 0F(1303,18) - V(23,15) <= 0
V(1303,18) - 0F(1303,27) - 0F(1303,10) - 0F(1303,15) - 1F(1303,18) - V(23,18) <= 0
V(1302,27) - 1F(1302,27) - 0F(1302,10) - 0F(1302,15) - 0F(1302,18) - V(5,27) <= 0
V(1302,10) - 0F(1302,27) - 1F(1302,10) - 0F(1302,15) - 0F(1302,18) - V(5,10) <= 0
V(1302,15) - 0F(1302,27) - 0F(1302,10) - 1F(1302,15) - 0F(1302,18) - V(5,15) <= 0
V(1302,18) - 0F(1302,27) - 0F(1302,10) - 0F(1302,15) - 1F(1302,18) - V(5,18) <= 0
V(1203,27) - 1F(1203,27) - 0F(1203,10) - 0F(1203,15) - 0F(1203,18) - V(13,27) <= 0
V(1203,10) - 0F(1203,27) - 1F(1203,10) - 0F(1203,15) - 0F(1203,18) - V(13,10) <= 0
V(1203,15) - 0F(1203,27) - 0F(1203,10) - 1F(1203,15) - 0F(1203,18) - V(13,15) <= 0
V(1203,18) - 0F(1203,27) - 0F(1203,10) - 0F(1203,15) - 1F(1203,18) - V(13,18) <= 0
V(1202,27) - 1F(1202,27) - 0F(1202,10) - 0F(1202,15) - 0F(1202,18) - V(1203,27) <= 0
V(1202,10) - 0F(1202,27) - 1F(1202,10) - 0F(1202,15) - 0F(1202,18) - V(1203,10) <= 0
V(1202,15) - 0F(1202,27) - 0F(1202,10) - 1F(1202,15) - 0F(1202,18) - V(1203,15) <= 0
V(1202,18) - 0F(1202,27) - 0F(1202,10) - 0F(1202,15) - 1F(1202,18) - V(1203,18) <= 0
V(0,27) - 1F(0,27) - 0F(0,10) - 0F(0,15) - 0F(0,18) - V(2,27) <= 0
V(0,10) - 0F(0,27) - 1F(0,10) - 0F(0,15) - 0F(0,18) - V(2,10) <= 0
V(0,15) - 0F(0,27) - 0F(0,10) - 1F(0,15) - 0F(0,18) - V(2,15) <= 0
V(0,18) - 0F(0,27) - 0F(0,10) - 0F(0,15) - 1F(0,18) - V(2,18) <= 0
V(1202,27) - 1F(1202,27) - 0F(1202,10) - 0F(1202,15) - 0F(1202,18) - V(10,27) <= 0
V(1202,10) - 0F(1202,27) - 1F(1202,10) - 0F(1202,15) - 0F(1202,18) - V(10,10) <= 0
V(1202,15) - 0F(1202,27) - 0F(1202,10) - 1F(1202,15) - 0F(1202,18) - V(10,15) <= 0
V(1202,18) - 0F(1202,27) - 0F(1202,10) - 0F(1202,15) - 1F(1202,18) - V(10,18) <= 0
V(2301,27) - 1F(2301,27) - 0F(2301,10) - 0F(2301,15) - 0F(2301,18) - V(2302,27) <= 0
V(2301,10) - 0F(2301,27) - 1F(2301,10) - 0F(2301,15) - 0F(2301,18) - V(2302,10) <= 0
V(2301,15) - 0F(2301,27) - 0F(2301,10) - 1F(2301,15) - 0F(2301,18) - V(2302,15) <= 0
V(2301,18) - 0F(2301,27) - 0F(2301,10) - 0F(2301,15) - 1F(2301,18) - V(2302,18) <= 0
V(10,27) - 1F(10,27) - 0F(10,10) - 0F(10,15) - 0F(10,18) - V(1101,27) <= 0
V(10,10) = 0
V(10,15) - 0F(10,27) - 0F(10,10) - 1F(10,15) - 0F(10,18) - V(1101,15) <= 0
V(10,18) - 0F(10,27) - 0F(10,10) - 0F(10,15) - 1F(10,18) - V(1101,18) <= 0
V(6,27) - 1F(6,27) - 0F(6,10) - 0F(6,15) - 0F(6,18) - V(2,27) <= 0
V(6,10) - 0F(6,27) - 1F(6,10) - 0F(6,15) - 0F(6,18) - V(2,10) <= 0
V(6,15) - 0F(6,27) - 0F(6,10) - 1F(6,15) - 0F(6,18) - V(2,15) <= 0
V(6,18) - 0F(6,27) - 0F(6,10) - 0F(6,15) - 1F(6,18) - V(2,18) <= 0
V(9,27) - 1F(9,27) - 0F(9,10) - 0F(9,15) - 0F(9,18) - V(18,27) <= 0
V(9,10) - 0F(9,27) - 1F(9,10) - 0F(9,15) - 0F(9,18) - V(18,10) <= 0
V(9,15) - 0F(9,27) - 0F(9,10) - 1F(9,15) - 0F(9,18) - V(18,15) <= 0
V(9,18) - 0F(9,27) - 0F(9,10) - 0F(9,15) - 1F(9,18) - V(18,18) <= 0
V(25,27) - 1F(25,27) - 0F(25,10) - 0F(25,15) - 0F(25,18) - V(23,27) <= 0
V(25,10) - 0F(25,27) - 1F(25,10) - 0F(25,15) - 0F(25,18) - V(23,10) <= 0
V(25,15) - 0F(25,27) - 0F(25,10) - 1F(25,15) - 0F(25,18) - V(23,15) <= 0
V(25,18) - 0F(25,27) - 0F(25,10) - 0F(25,15) - 1F(25,18) - V(23,18) <= 0
V(8,27) - 1F(8,27) - 0F(8,10) - 0F(8,15) - 0F(8,18) - V(10,27) <= 0
V(8,10) - 0F(8,27) - 1F(8,10) - 0F(8,15) - 0F(8,18) - V(10,10) <= 0
V(8,15) - 0F(8,27) - 0F(8,10) - 1F(8,15) - 0F(8,18) - V(10,15) <= 0
V(8,18) - 0F(8,27) - 0F(8,10) - 0F(8,15) - 1F(8,18) - V(10,18) <= 0
V(2201,27) - 1F(2201,27) - 0F(2201,10) - 0F(2201,15) - 0F(2201,18) - V(2202,27) <= 0
V(2201,10) - 0F(2201,27) - 1F(2201,10) - 0F(2201,15) - 0F(2201,18) - V(2202,10) <= 0
V(2201,15) - 0F(2201,27) - 0F(2201,10) - 1F(2201,15) - 0F(2201,18) - V(2202,15) <= 0
V(2201,18) - 0F(2201,27) - 0F(2201,10) - 0F(2201,15) - 1F(2201,18) - V(2202,18) <= 0
V(23,27) - 1F(23,27) - 0F(23,10) - 0F(23,15) - 0F(23,18) - V(15,27) <= 0
V(23,10) - 0F(23,27) - 1F(23,10) - 0F(23,15) - 0F(23,18) - V(15,10) <= 0
V(23,15) - 0F(23,27) - 0F(23,10) - 1F(23,15) - 0F(23,18) - V(15,15) <= 0
V(23,18) - 0F(23,27) - 0F(23,10) - 0F(23,15) - 1F(23,18) - V(15,18) <= 0
V(1402,27) - 1F(1402,27) - 0F(1402,10) - 0F(1402,15) - 0F(1402,18) - V(13,27) <= 0
V(1402,10) - 0F(1402,27) - 1F(1402,10) - 0F(1402,15) - 0F(1402,18) - V(13,10) <= 0
V(1402,15) - 0F(1402,27) - 0F(1402,10) - 1F(1402,15) - 0F(1402,18) - V(13,15) <= 0
V(1402,18) - 0F(1402,27) - 0F(1402,10) - 0F(1402,15) - 1F(1402,18) - V(13,18) <= 0
V(1202,27) - 1F(1202,27) - 0F(1202,10) - 0F(1202,15) - 0F(1202,18) - V(5,27) <= 0
V(1202,10) - 0F(1202,27) - 1F(1202,10) - 0F(1202,15) - 0F(1202,18) - V(5,10) <= 0
V(1202,15) - 0F(1202,27) - 0F(1202,10) - 1F(1202,15) - 0F(1202,18) - V(5,15) <= 0
V(1202,18) - 0F(1202,27) - 0F(1202,10) - 0F(1202,15) - 1F(1202,18) - V(5,18) <= 0
V(1,27) - 1F(1,27) - 0F(1,10) - 0F(1,15) - 0F(1,18) - V(4,27) <= 0
V(1,10) - 0F(1,27) - 1F(1,10) - 0F(1,15) - 0F(1,18) - V(4,10) <= 0
V(1,15) - 0F(1,27) - 0F(1,10) - 1F(1,15) - 0F(1,18) - V(4,15) <= 0
V(1,18) - 0F(1,27) - 0F(1,10) - 0F(1,15) - 1F(1,18) - V(4,18) <= 0
V(2302,27) - 1F(2302,27) - 0F(2302,10) - 0F(2302,15) - 0F(2302,18) - V(2303,27) <= 0
V(2302,10) - 0F(2302,27) - 1F(2302,10) - 0F(2302,15) - 0F(2302,18) - V(2303,10) <= 0
V(2302,15) - 0F(2302,27) - 0F(2302,10) - 1F(2302,15) - 0F(2302,18) - V(2303,15) <= 0
V(2302,18) - 0F(2302,27) - 0F(2302,10) - 0F(2302,15) - 1F(2302,18) - V(2303,18) <= 0
V(1402,27) - 1F(1402,27) - 0F(1402,10) - 0F(1402,15) - 0F(1402,18) - V(19,27) <= 0
V(1402,10) - 0F(1402,27) - 1F(1402,10) - 0F(1402,15) - 0F(1402,18) - V(19,10) <= 0
V(1402,15) - 0F(1402,27) - 0F(1402,10) - 1F(1402,15) - 0F(1402,18) - V(19,15) <= 0
V(1402,18) - 0F(1402,27) - 0F(1402,10) - 0F(1402,15) - 1F(1402,18) - V(19,18) <= 0
V(6,27) - 1F(6,27) - 0F(6,10) - 0F(6,15) - 0F(6,18) - V(5,27) <= 0
V(6,10) - 0F(6,27) - 1F(6,10) - 0F(6,15) - 0F(6,18) - V(5,10) <= 0
V(6,15) - 0F(6,27) - 0F(6,10) - 1F(6,15) - 0F(6,18) - V(5,15) <= 0
V(6,18) - 0F(6,27) - 0F(6,10) - 0F(6,15) - 1F(6,18) - V(5,18) <= 0
V(1303,27) - 1F(1303,27) - 0F(1303,10) - 0F(1303,15) - 0F(1303,18) - V(19,27) <= 0
V(1303,10) - 0F(1303,27) - 1F(1303,10) - 0F(1303,15) - 0F(1303,18) - V(19,10) <= 0
V(1303,15) - 0F(1303,27) - 0F(1303,10) - 1F(1303,15) - 0F(1303,18) - V(19,15) <= 0
V(1303,18) - 0F(1303,27) - 0F(1303,10) - 0F(1303,15) - 1F(1303,18) - V(19,18) <= 0
V(2101,27) - 1F(2101,27) - 0F(2101,10) - 0F(2101,15) - 0F(2101,18) - V(2102,27) <= 0
V(2101,10) - 0F(2101,27) - 1F(2101,10) - 0F(2101,15) - 0F(2101,18) - V(2102,10) <= 0
V(2101,15) - 0F(2101,27) - 0F(2101,10) - 1F(2101,15) - 0F(2101,18) - V(2102,15) <= 0
V(2101,18) - 0F(2101,27) - 0F(2101,10) - 0F(2101,15) - 1F(2101,18) - V(2102,18) <= 0
V(1301,27) - 1F(1301,27) - 0F(1301,10) - 0F(1301,15) - 0F(1301,18) - V(1302,27) <= 0
V(1301,10) - 0F(1301,27) - 1F(1301,10) - 0F(1301,15) - 0F(1301,18) - V(1302,10) <= 0
V(1301,15) - 0F(1301,27) - 0F(1301,10) - 1F(1301,15) - 0F(1301,18) - V(1302,15) <= 0
V(1301,18) - 0F(1301,27) - 0F(1301,10) - 0F(1301,15) - 1F(1301,18) - V(1302,18) <= 0
V(27,27) = 0
V(27,10) - 0F(27,27) - 1F(27,10) - 0F(27,15) - 0F(27,18) - V(2301,10) <= 0
V(27,15) - 0F(27,27) - 0F(27,10) - 1F(27,15) - 0F(27,18) - V(2301,15) <= 0
V(27,18) - 0F(27,27) - 0F(27,10) - 0F(27,15) - 1F(27,18) - V(2301,18) <= 0
V(2101,27) - 1F(2101,27) - 0F(2101,10) - 0F(2101,15) - 0F(2101,18) - V(18,27) <= 0
V(2101,10) - 0F(2101,27) - 1F(2101,10) - 0F(2101,15) - 0F(2101,18) - V(18,10) <= 0
V(2101,15) - 0F(2101,27) - 0F(2101,10) - 1F(2101,15) - 0F(2101,18) - V(18,15) <= 0
V(2101,18) - 0F(2101,27) - 0F(2101,10) - 0F(2101,15) - 1F(2101,18) - V(18,18) <= 0
V(1503,27) - 1F(1503,27) - 0F(1503,10) - 0F(1503,15) - 0F(1503,18) - V(5,27) <= 0
V(1503,10) - 0F(1503,27) - 1F(1503,10) - 0F(1503,15) - 0F(1503,18) - V(5,10) <= 0
V(1503,15) - 0F(1503,27) - 0F(1503,10) - 1F(1503,15) - 0F(1503,18) - V(5,15) <= 0
V(1503,18) - 0F(1503,27) - 0F(1503,10) - 0F(1503,15) - 1F(1503,18) - V(5,18) <= 0
V(2303,27) - 1F(2303,27) - 0F(2303,10) - 0F(2303,15) - 0F(2303,18) - V(18,27) <= 0
V(2303,10) - 0F(2303,27) - 1F(2303,10) - 0F(2303,15) - 0F(2303,18) - V(18,10) <= 0
V(2303,15) - 0F(2303,27) - 0F(2303,10) - 1F(2303,15) - 0F(2303,18) - V(18,15) <= 0
V(2303,18) - 0F(2303,27) - 0F(2303,10) - 0F(2303,15) - 1F(2303,18) - V(18,18) <= 0
V(5,27) - 1F(5,27) - 0F(5,10) - 0F(5,15) - 0F(5,18) - V(6,27) <= 0
V(5,10) - 0F(5,27) - 1F(5,10) - 0F(5,15) - 0F(5,18) - V(6,10) <= 0
V(5,15) - 0F(5,27) - 0F(5,10) - 1F(5,15) - 0F(5,18) - V(6,15) <= 0
V(5,18) - 0F(5,27) - 0F(5,10) - 0F(5,15) - 1F(5,18) - V(6,18) <= 0
V(14,27) - 1F(14,27) - 0F(14,10) - 0F(14,15) - 0F(14,18) - V(13,27) <= 0
V(14,10) - 0F(14,27) - 1F(14,10) - 0F(14,15) - 0F(14,18) - V(13,10) <= 0
V(14,15) - 0F(14,27) - 0F(14,10) - 1F(14,15) - 0F(14,18) - V(13,15) <= 0
V(14,18) - 0F(14,27) - 0F(14,10) - 0F(14,15) - 1F(14,18) - V(13,18) <= 0
V(27,27) = 0
V(27,10) - 0F(27,27) - 1F(27,10) - 0F(27,15) - 0F(27,18) - V(14,10) <= 0
V(27,15) - 0F(27,27) - 0F(27,10) - 1F(27,15) - 0F(27,18) - V(14,15) <= 0
V(27,18) - 0F(27,27) - 0F(27,10) - 0F(27,15) - 1F(27,18) - V(14,18) <= 0
V(1101,27) - 1F(1101,27) - 0F(1101,10) - 0F(1101,15) - 0F(1101,18) - V(5,27) <= 0
V(1101,10) - 0F(1101,27) - 1F(1101,10) - 0F(1101,15) - 0F(1101,18) - V(5,10) <= 0
V(1101,15) - 0F(1101,27) - 0F(1101,10) - 1F(1101,15) - 0F(1101,18) - V(5,15) <= 0
V(1101,18) - 0F(1101,27) - 0F(1101,10) - 0F(1101,15) - 1F(1101,18) - V(5,18) <= 0
V(14,27) - 1F(14,27) - 0F(14,10) - 0F(14,15) - 0F(14,18) - V(27,27) <= 0
V(14,10) - 0F(14,27) - 1F(14,10) - 0F(14,15) - 0F(14,18) - V(27,10) <= 0
V(14,15) - 0F(14,27) - 0F(14,10) - 1F(14,15) - 0F(14,18) - V(27,15) <= 0
V(14,18) - 0F(14,27) - 0F(14,10) - 0F(14,15) - 1F(14,18) - V(27,18) <= 0
V(1302,27) - 1F(1302,27) - 0F(1302,10) - 0F(1302,15) - 0F(1302,18) - V(10,27) <= 0
V(1302,10) - 0F(1302,27) - 1F(1302,10) - 0F(1302,15) - 0F(1302,18) - V(10,10) <= 0
V(1302,15) - 0F(1302,27) - 0F(1302,10) - 1F(1302,15) - 0F(1302,18) - V(10,15) <= 0
V(1302,18) - 0F(1302,27) - 0F(1302,10) - 0F(1302,15) - 1F(1302,18) - V(10,18) <= 0
V(1501,27) - 1F(1501,27) - 0F(1501,10) - 0F(1501,15) - 0F(1501,18) - V(1502,27) <= 0
V(1501,10) - 0F(1501,27) - 1F(1501,10) - 0F(1501,15) - 0F(1501,18) - V(1502,10) <= 0
V(1501,15) - 0F(1501,27) - 0F(1501,10) - 1F(1501,15) - 0F(1501,18) - V(1502,15) <= 0
V(1501,18) - 0F(1501,27) - 0F(1501,10) - 0F(1501,15) - 1F(1501,18) - V(1502,18) <= 0
V(28,27) - 1F(28,27) - 0F(28,10) - 0F(28,15) - 0F(28,18) - V(3,27) <= 0
V(28,10) - 0F(28,27) - 1F(28,10) - 0F(28,15) - 0F(28,18) - V(3,10) <= 0
V(28,15) - 0F(28,27) - 0F(28,10) - 1F(28,15) - 0F(28,18) - V(3,15) <= 0
V(28,18) - 0F(28,27) - 0F(28,10) - 0F(28,15) - 1F(28,18) - V(3,18) <= 0
V(1503,27) - 1F(1503,27) - 0F(1503,10) - 0F(1503,15) - 0F(1503,18) - V(13,27) <= 0
V(1503,10) - 0F(1503,27) - 1F(1503,10) - 0F(1503,15) - 0F(1503,18) - V(13,10) <= 0
V(1503,15) - 0F(1503,27) - 0F(1503,10) - 1F(1503,15) - 0F(1503,18) - V(13,15) <= 0
V(1503,18) - 0F(1503,27) - 0F(1503,10) - 0F(1503,15) - 1F(1503,18) - V(13,18) <= 0
V(1102,27) - 1F(1102,27) - 0F(1102,10) - 0F(1102,15) - 0F(1102,18) - V(1103,27) <= 0
V(1102,10) - 0F(1102,27) - 1F(1102,10) - 0F(1102,15) - 0F(1102,18) - V(1103,10) <= 0
V(1102,15) - 0F(1102,27) - 0F(1102,10) - 1F(1102,15) - 0F(1102,18) - V(1103,15) <= 0
V(1102,18) - 0F(1102,27) - 0F(1102,10) - 0F(1102,15) - 1F(1102,18) - V(1103,18) <= 0
V(25,27) - 1F(25,27) - 0F(25,10) - 0F(25,15) - 0F(25,18) - V(28,27) <= 0
V(25,10) - 0F(25,27) - 1F(25,10) - 0F(25,15) - 0F(25,18) - V(28,10) <= 0
V(25,15) - 0F(25,27) - 0F(25,10) - 1F(25,15) - 0F(25,18) - V(28,15) <= 0
V(25,18) - 0F(25,27) - 0F(25,10) - 0F(25,15) - 1F(25,18) - V(28,18) <= 0
V(7,27) - 1F(7,27) - 0F(7,10) - 0F(7,15) - 0F(7,18) - V(15,27) <= 0
V(7,10) - 0F(7,27) - 1F(7,10) - 0F(7,15) - 0F(7,18) - V(15,10) <= 0
V(7,15) - 0F(7,27) - 0F(7,10) - 1F(7,15) - 0F(7,18) - V(15,15) <= 0
V(7,18) - 0F(7,27) - 0F(7,10) - 0F(7,15) - 1F(7,18) - V(15,18) <= 0
V(19,27) - 1F(19,27) - 0F(19,10) - 0F(19,15) - 0F(19,18) - V(9,27) <= 0
V(19,10) - 0F(19,27) - 1F(19,10) - 0F(19,15) - 0F(19,18) - V(9,10) <= 0
V(19,15) - 0F(19,27) - 0F(19,10) - 1F(19,15) - 0F(19,18) - V(9,15) <= 0
V(19,18) - 0F(19,27) - 0F(19,10) - 0F(19,15) - 1F(19,18) - V(9,18) <= 0
V(2202,27) - 1F(2202,27) - 0F(2202,10) - 0F(2202,15) - 0F(2202,18) - V(2203,27) <= 0
V(2202,10) - 0F(2202,27) - 1F(2202,10) - 0F(2202,15) - 0F(2202,18) - V(2203,10) <= 0
V(2202,15) - 0F(2202,27) - 0F(2202,10) - 1F(2202,15) - 0F(2202,18) - V(2203,15) <= 0
V(2202,18) - 0F(2202,27) - 0F(2202,10) - 0F(2202,15) - 1F(2202,18) - V(2203,18) <= 0
V(2203,27) - 1F(2203,27) - 0F(2203,10) - 0F(2203,15) - 0F(2203,18) - V(27,27) <= 0
V(2203,10) - 0F(2203,27) - 1F(2203,10) - 0F(2203,15) - 0F(2203,18) - V(27,10) <= 0
V(2203,15) - 0F(2203,27) - 0F(2203,10) - 1F(2203,15) - 0F(2203,18) - V(27,15) <= 0
V(2203,18) - 0F(2203,27) - 0F(2203,10) - 0F(2203,15) - 1F(2203,18) - V(27,18) <= 0
V(18,27) - 1F(18,27) - 0F(18,10) - 0F(18,15) - 0F(18,18) - V(2201,27) <= 0
V(18,10) - 0F(18,27) - 1F(18,10) - 0F(18,15) - 0F(18,18) - V(2201,10) <= 0
V(18,15) - 0F(18,27) - 0F(18,10) - 1F(18,15) - 0F(18,18) - V(2201,15) <= 0
V(18,18) = 0
V(13,27) - 1F(13,27) - 0F(13,10) - 0F(13,15) - 0F(13,18) - V(14,27) <= 0
V(13,10) - 0F(13,27) - 1F(13,10) - 0F(13,15) - 0F(13,18) - V(14,10) <= 0
V(13,15) - 0F(13,27) - 0F(13,10) - 1F(13,15) - 0F(13,18) - V(14,15) <= 0
V(13,18) - 0F(13,27) - 0F(13,10) - 0F(13,15) - 1F(13,18) - V(14,18) <= 0
V(1401,27) - 1F(1401,27) - 0F(1401,10) - 0F(1401,15) - 0F(1401,18) - V(1402,27) <= 0
V(1401,10) - 0F(1401,27) - 1F(1401,10) - 0F(1401,15) - 0F(1401,18) - V(1402,10) <= 0
V(1401,15) - 0F(1401,27) - 0F(1401,10) - 1F(1401,15) - 0F(1401,18) - V(1402,15) <= 0
V(1401,18) - 0F(1401,27) - 0F(1401,10) - 0F(1401,15) - 1F(1401,18) - V(1402,18) <= 0
V(2,27) - 1F(2,27) - 0F(2,10) - 0F(2,15) - 0F(2,18) - V(0,27) <= 0
V(2,10) - 0F(2,27) - 1F(2,10) - 0F(2,15) - 0F(2,18) - V(0,10) <= 0
V(2,15) - 0F(2,27) - 0F(2,10) - 1F(2,15) - 0F(2,18) - V(0,15) <= 0
V(2,18) - 0F(2,27) - 0F(2,10) - 0F(2,15) - 1F(2,18) - V(0,18) <= 0
F(0,27) + F(0,10) + F(0,15) + F(0,18) = 1 
F(1,27) + F(1,10) + F(1,15) + F(1,18) = 1 
F(2,27) + F(2,10) + F(2,15) + F(2,18) = 1 
F(3,27) + F(3,10) + F(3,15) + F(3,18) = 1 
F(4,27) + F(4,10) + F(4,15) + F(4,18) = 1 
F(5,27) + F(5,10) + F(5,15) + F(5,18) = 1 
F(6,27) + F(6,10) + F(6,15) + F(6,18) = 1 
F(7,27) + F(7,10) + F(7,15) + F(7,18) = 1 
F(8,27) + F(8,10) + F(8,15) + F(8,18) = 1 
F(9,27) + F(9,10) + F(9,15) + F(9,18) = 1 
F(10,27) + F(10,10) + F(10,15) + F(10,18) = 1 
F(1303,27) + F(1303,10) + F(1303,15) + F(1303,18) = 1 
F(13,27) + F(13,10) + F(13,15) + F(13,18) = 1 
F(14,27) + F(14,10) + F(14,15) + F(14,18) = 1 
F(15,27) + F(15,10) + F(15,15) + F(15,18) = 1 
F(18,27) + F(18,10) + F(18,15) + F(18,18) = 1 
F(19,27) + F(19,10) + F(19,15) + F(19,18) = 1 
F(1301,27) + F(1301,10) + F(1301,15) + F(1301,18) = 1 
F(1302,27) + F(1302,10) + F(1302,15) + F(1302,18) = 1 
F(23,27) + F(23,10) + F(23,15) + F(23,18) = 1 
F(25,27) + F(25,10) + F(25,15) + F(25,18) = 1 
F(2202,27) + F(2202,10) + F(2202,15) + F(2202,18) = 1 
F(27,27) + F(27,10) + F(27,15) + F(27,18) = 1 
F(28,27) + F(28,10) + F(28,15) + F(28,18) = 1 
F(2203,27) + F(2203,10) + F(2203,15) + F(2203,18) = 1 
F(1201,27) + F(1201,10) + F(1201,15) + F(1201,18) = 1 
F(1202,27) + F(1202,10) + F(1202,15) + F(1202,18) = 1 
F(1203,27) + F(1203,10) + F(1203,15) + F(1203,18) = 1 
F(2101,27) + F(2101,10) + F(2101,15) + F(2101,18) = 1 
F(2102,27) + F(2102,10) + F(2102,15) + F(2102,18) = 1 
F(2103,27) + F(2103,10) + F(2103,15) + F(2103,18) = 1 
F(2201,27) + F(2201,10) + F(2201,15) + F(2201,18) = 1 
F(1101,27) + F(1101,10) + F(1101,15) + F(1101,18) = 1 
F(1102,27) + F(1102,10) + F(1102,15) + F(1102,18) = 1 
F(1103,27) + F(1103,10) + F(1103,15) + F(1103,18) = 1 
F(1501,27) + F(1501,10) + F(1501,15) + F(1501,18) = 1 
F(1502,27) + F(1502,10) + F(1502,15) + F(1502,18) = 1 
F(1503,27) + F(1503,10) + F(1503,15) + F(1503,18) = 1 
F(1401,27) + F(1401,10) + F(1401,15) + F(1401,18) = 1 
F(1402,27) + F(1402,10) + F(1402,15) + F(1402,18) = 1 
F(1403,27) + F(1403,10) + F(1403,15) + F(1403,18) = 1 
F(2301,27) + F(2301,10) + F(2301,15) + F(2301,18) = 1 
F(2302,27) + F(2302,10) + F(2302,15) + F(2302,18) = 1 
F(2303,27) + F(2303,10) + F(2303,15) + F(2303,18) = 1 
bounds
F(2103,27)  >= 0
F(6,15)  >= 0
F(1502,27)  >= 0
V(15,10)  free 
V(1503,15)  free 
V(1402,18)  free 
V(18,27)  free 
F(25,18)  >= 0
V(1403,15)  free 
F(15,27)  >= 0
V(1303,18)  free 
F(18,15)  >= 0
F(1102,27)  >= 0
V(6,10)  free 
F(1302,10)  >= 0
F(15,15)  >= 0
V(1403,27)  free 
F(4,15)  >= 0
F(27,10)  >= 0
F(2301,27)  >= 0
F(2202,10)  >= 0
V(28,15)  free 
F(9,18)  >= 0
F(1201,15)  >= 0
F(1101,27)  >= 0
F(2203,10)  >= 0
V(1402,27)  free 
F(1403,10)  >= 0
V(1,15)  free 
F(2103,10)  >= 0
V(14,15)  free 
V(1101,18)  free 
F(5,18)  >= 0
V(2202,15)  free 
V(1501,10)  free 
F(2301,10)  >= 0
F(14,15)  >= 0
V(2302,18)  free 
V(9,15)  free 
F(2101,10)  >= 0
F(2303,10)  >= 0
F(3,18)  >= 0
V(14,27)  free 
F(1102,10)  >= 0
V(4,18)  free 
V(2303,18)  free 
V(1502,27)  free 
V(1201,15)  free 
F(18,18)  >= 0
F(1503,10)  >= 0
F(14,27)  >= 0
V(1403,18)  free 
V(2102,10)  free 
V(1302,27)  free 
V(1103,10)  free 
V(13,18)  free 
V(1303,15)  free 
V(2301,18)  free 
V(7,27)  free 
F(1203,18)  >= 0
V(2101,27)  free 
F(1303,18)  >= 0
V(23,27)  free 
F(1,10)  >= 0
V(1402,15)  free 
V(27,10)  free 
F(18,27)  >= 0
F(23,27)  >= 0
V(1502,10)  free 
V(5,15)  free 
V(1202,15)  free 
F(5,27)  >= 0
V(1303,27)  free 
V(28,10)  free 
V(1301,10)  free 
F(1402,27)  >= 0
V(1201,27)  free 
F(1203,27)  >= 0
V(1,18)  free 
V(13,15)  free 
F(28,18)  >= 0
V(3,10)  free 
V(2202,10)  free 
V(2302,15)  free 
F(19,15)  >= 0
F(1201,27)  >= 0
V(2301,15)  free 
V(2102,15)  free 
F(5,15)  >= 0
F(1301,10)  >= 0
V(2303,15)  free 
F(2302,18)  >= 0
V(1101,15)  free 
V(1201,10)  free 
V(18,18)  free 
V(1501,27)  free 
V(2202,18)  free 
V(6,18)  free 
V(1103,15)  free 
V(15,18)  free 
F(3,15)  >= 0
F(10,10)  >= 0
V(2301,27)  free 
F(1302,27)  >= 0
F(1502,10)  >= 0
V(23,18)  free 
F(1,15)  >= 0
V(1101,27)  free 
V(0,18)  free 
V(2,18)  free 
F(2302,15)  >= 0
F(1103,10)  >= 0
V(13,27)  free 
F(1402,15)  >= 0
F(2201,27)  >= 0
F(2202,27)  >= 0
F(3,27)  >= 0
F(2101,27)  >= 0
F(7,10)  >= 0
F(1201,10)  >= 0
F(8,15)  >= 0
F(23,18)  >= 0
F(9,10)  >= 0
V(2302,27)  free 
F(2202,18)  >= 0
F(1401,10)  >= 0
F(1303,15)  >= 0
V(1301,15)  free 
V(8,15)  free 
F(1301,15)  >= 0
V(1401,27)  free 
F(27,27)  >= 0
F(2303,27)  >= 0
F(28,10)  >= 0
F(28,15)  >= 0
V(2201,27)  free 
V(2102,18)  free 
V(19,15)  free 
V(2,15)  free 
V(2301,10)  free 
F(1303,27)  >= 0
F(6,10)  >= 0
V(2303,10)  free 
F(18,10)  >= 0
F(1503,18)  >= 0
V(1403,10)  free 
V(10,15)  free 
F(1202,18)  >= 0
V(1103,18)  free 
V(13,10)  free 
V(1202,27)  free 
F(27,15)  >= 0
V(1502,18)  free 
V(2203,18)  free 
V(6,27)  free 
F(2102,15)  >= 0
F(19,10)  >= 0
F(8,27)  >= 0
F(1,18)  >= 0
V(0,15)  free 
V(25,10)  free 
F(2203,15)  >= 0
V(1401,15)  free 
F(15,10)  >= 0
V(15,27)  free 
F(1103,15)  >= 0
V(4,15)  free 
V(10,10)  free 
F(2302,27)  >= 0
F(7,15)  >= 0
V(28,27)  free 
V(27,27)  free 
F(1202,15)  >= 0
F(1503,27)  >= 0
F(2,27)  >= 0
V(2103,18)  free 
V(8,27)  free 
F(1201,18)  >= 0
V(1301,18)  free 
V(0,27)  free 
F(8,10)  >= 0
F(9,15)  >= 0
F(2201,18)  >= 0
F(1301,18)  >= 0
V(2202,27)  free 
V(1,27)  free 
F(7,27)  >= 0
F(2102,18)  >= 0
F(1501,18)  >= 0
F(1202,27)  >= 0
V(1201,18)  free 
V(18,10)  free 
V(9,27)  free 
V(8,10)  free 
V(1102,18)  free 
V(2201,18)  free 
V(7,18)  free 
F(1401,27)  >= 0
F(1101,10)  >= 0
F(1103,18)  >= 0
V(2,10)  free 
F(10,18)  >= 0
V(1202,18)  free 
F(1503,15)  >= 0
V(15,15)  free 
F(0,18)  >= 0
V(19,10)  free 
V(4,27)  free 
F(1202,10)  >= 0
V(1503,10)  free 
V(2103,15)  free 
V(1203,27)  free 
F(1502,18)  >= 0
V(0,10)  free 
V(1302,18)  free 
V(23,10)  free 
V(25,15)  free 
F(23,10)  >= 0
V(27,15)  free 
V(2203,10)  free 
V(1102,15)  free 
F(1402,18)  >= 0
V(1401,18)  free 
F(1401,15)  >= 0
F(13,18)  >= 0
V(6,15)  free 
F(0,15)  >= 0
V(25,27)  free 
V(2303,27)  free 
V(2203,15)  free 
V(2103,27)  free 
V(2101,18)  free 
F(2203,27)  >= 0
F(19,27)  >= 0
V(1501,15)  free 
V(1302,15)  free 
V(9,18)  free 
F(14,18)  >= 0
V(25,18)  free 
F(4,18)  >= 0
V(2102,27)  free 
F(19,18)  >= 0
V(1203,15)  free 
F(6,18)  >= 0
V(1203,18)  free 
V(2203,27)  free 
V(1102,27)  free 
F(1403,15)  >= 0
V(14,18)  free 
V(10,18)  free 
F(25,10)  >= 0
F(10,15)  >= 0
F(13,15)  >= 0
V(1103,27)  free 
V(3,18)  free 
F(2,18)  >= 0
F(0,27)  >= 0
F(15,18)  >= 0
F(9,27)  >= 0
F(2201,10)  >= 0
F(1,27)  >= 0
V(2101,15)  free 
V(1402,10)  free 
V(23,15)  free 
V(1303,10)  free 
F(4,10)  >= 0
F(1403,27)  >= 0
F(23,15)  >= 0
F(8,18)  >= 0
V(2103,10)  free 
F(13,27)  >= 0
V(3,15)  free 
V(7,10)  free 
F(7,18)  >= 0
F(28,27)  >= 0
F(1401,18)  >= 0
F(27,18)  >= 0
F(1203,15)  >= 0
V(1502,15)  free 
V(1102,10)  free 
V(2201,10)  free 
F(1302,18)  >= 0
F(2101,18)  >= 0
V(1301,27)  free 
V(19,18)  free 
F(2,15)  >= 0
F(2303,18)  >= 0
F(1101,18)  >= 0
F(1301,27)  >= 0
F(2203,18)  >= 0
V(8,18)  free 
F(1501,10)  >= 0
F(10,27)  >= 0
F(0,10)  >= 0
V(5,27)  free 
V(1202,10)  free 
F(2301,18)  >= 0
V(1302,10)  free 
V(2302,10)  free 
F(5,10)  >= 0
F(2102,10)  >= 0
V(1503,18)  free 
F(1403,18)  >= 0
F(2103,18)  >= 0
V(19,27)  free 
V(1101,10)  free 
V(2,27)  free 
V(1501,18)  free 
V(5,18)  free 
F(25,15)  >= 0
F(13,10)  >= 0
F(1302,15)  >= 0
V(4,10)  free 
F(2102,27)  >= 0
F(1102,18)  >= 0
F(3,10)  >= 0
F(2201,15)  >= 0
F(1502,15)  >= 0
V(5,10)  free 
V(2101,10)  free 
V(27,18)  free 
F(1402,10)  >= 0
V(1401,10)  free 
F(1103,27)  >= 0
V(3,27)  free 
F(4,27)  >= 0
V(9,10)  free 
V(14,10)  free 
F(2103,15)  >= 0
F(1501,15)  >= 0
V(10,27)  free 
V(1,10)  free 
V(1203,10)  free 
F(25,27)  >= 0
F(2202,15)  >= 0
F(2101,15)  >= 0
F(1203,10)  >= 0
V(2201,15)  free 
F(1303,10)  >= 0
V(7,15)  free 
F(2303,15)  >= 0
V(1503,27)  free 
F(1101,15)  >= 0
F(2302,10)  >= 0
F(1501,27)  >= 0
F(1102,15)  >= 0
F(2,10)  >= 0
F(14,10)  >= 0
V(18,15)  free 
F(2301,15)  >= 0
F(6,27)  >= 0
V(28,18)  free 
